
Gurobi 9.5.2 (win64) logging started Mon Mar 27 20:27:01 2023

Set parameter LogFile to value "2023-03-27_20hr-25min-09sec/Nodes30_Arcs35_LocNodes22/Formulation-2Instance-3.log"
Set parameter TimeLimit to value 600
Set parameter IntFeasTol to value 1e-09
Set parameter DualReductions to value 0
Set parameter NonConvex to value 2
Gurobi Optimizer version 9.5.2 build v9.5.2rc0 (win64)
Thread count: 4 physical cores, 8 logical processors, using up to 8 threads
Optimize a model with 118 rows, 204 columns and 418 nonzeros
Model fingerprint: 0x926843f1
Model has 65 quadratic objective terms
Model has 65 SOS constraints
Variable types: 182 continuous, 22 integer (22 binary)
Coefficient statistics:
  Matrix range     [1e-01, 2e+02]
  Objective range  [4e-02, 1e+03]
  QObjective range [2e-01, 8e+00]
  Bounds range     [1e+00, 1e+00]
  RHS range        [4e-02, 2e+03]
Presolve removed 10 rows and 11 columns
Presolve time: 0.00s
Presolved: 108 rows, 193 columns, 398 nonzeros
Presolved model has 63 SOS constraint(s)
Presolved model has 63 quadratic objective terms
Variable types: 171 continuous, 22 integer (22 binary)

Root relaxation: objective 6.642025e+05, 245 iterations, 0.00 seconds (0.00 work units)

    Nodes    |    Current Node    |     Objective Bounds      |     Work
 Expl Unexpl |  Obj  Depth IntInf | Incumbent    BestBd   Gap | It/Node Time

     0     0 664202.473    0    9          - 664202.473      -     -    0s
H    0     0                    660464.05717 664202.473  0.57%     -    0s
H    0     0                    662253.36705 664202.473  0.29%     -    0s
     0     0 663907.941    0    9 662253.367 663907.941  0.25%     -    0s
     0     0 663907.941    0    8 662253.367 663907.941  0.25%     -    0s
     0     0 663907.941    0    8 662253.367 663907.941  0.25%     -    0s
     0     0 663907.941    0    8 662253.367 663907.941  0.25%     -    0s
H    0     0                    662744.89068 663907.941  0.18%     -    0s
     0     0 663886.589    0    8 662744.891 663886.589  0.17%     -    0s

Cutting planes:
  MIR: 3

Explored 1 nodes (269 simplex iterations) in 0.09 seconds (0.02 work units)
Thread count was 8 (of 8 available processors)

Solution count 3: 662745 662253 660464 

Optimal solution found (tolerance 1.00e-04)
Best objective 6.627448906806e+05, best bound 6.627955898759e+05, gap 0.0076%

User-callback calls 286, time in user-callback 0.00 sec
